c File: flat75_3_0.col
c
c SOURCE: Joseph Culberson (joe@cs.ualberta.ca)
c DESCRIPTION: Quasi-random coloring problem
c              generated with flatness = 0
c                             probability = 0.096
c                             known coloring = 3
c                             random seed = 1079
c              Creation Date:  Wed Feb 24 10:42:10 1999
c Maximum degree = 8 Minimum degree = 1
c COLOR VERIFICATION: Using the permuted order
c under simple greedy yields the specified
c coloring number
c Color = 3 specified partitions = 3
c p edge 75 180
c cnf created by edge2cnf
p cnf 225 840
-1 -2 0
-1 -3 0
-2 -3 0
1 2 3 0
-4 -5 0
-4 -6 0
-5 -6 0
4 5 6 0
-7 -8 0
-7 -9 0
-8 -9 0
7 8 9 0
-10 -11 0
-10 -12 0
-11 -12 0
10 11 12 0
-13 -14 0
-13 -15 0
-14 -15 0
13 14 15 0
-16 -17 0
-16 -18 0
-17 -18 0
16 17 18 0
-19 -20 0
-19 -21 0
-20 -21 0
19 20 21 0
-22 -23 0
-22 -24 0
-23 -24 0
22 23 24 0
-25 -26 0
-25 -27 0
-26 -27 0
25 26 27 0
-28 -29 0
-28 -30 0
-29 -30 0
28 29 30 0
-31 -32 0
-31 -33 0
-32 -33 0
31 32 33 0
-34 -35 0
-34 -36 0
-35 -36 0
34 35 36 0
-37 -38 0
-37 -39 0
-38 -39 0
37 38 39 0
-40 -41 0
-40 -42 0
-41 -42 0
40 41 42 0
-43 -44 0
-43 -45 0
-44 -45 0
43 44 45 0
-46 -47 0
-46 -48 0
-47 -48 0
46 47 48 0
-49 -50 0
-49 -51 0
-50 -51 0
49 50 51 0
-52 -53 0
-52 -54 0
-53 -54 0
52 53 54 0
-55 -56 0
-55 -57 0
-56 -57 0
55 56 57 0
-58 -59 0
-58 -60 0
-59 -60 0
58 59 60 0
-61 -62 0
-61 -63 0
-62 -63 0
61 62 63 0
-64 -65 0
-64 -66 0
-65 -66 0
64 65 66 0
-67 -68 0
-67 -69 0
-68 -69 0
67 68 69 0
-70 -71 0
-70 -72 0
-71 -72 0
70 71 72 0
-73 -74 0
-73 -75 0
-74 -75 0
73 74 75 0
-76 -77 0
-76 -78 0
-77 -78 0
76 77 78 0
-79 -80 0
-79 -81 0
-80 -81 0
79 80 81 0
-82 -83 0
-82 -84 0
-83 -84 0
82 83 84 0
-85 -86 0
-85 -87 0
-86 -87 0
85 86 87 0
-88 -89 0
-88 -90 0
-89 -90 0
88 89 90 0
-91 -92 0
-91 -93 0
-92 -93 0
91 92 93 0
-94 -95 0
-94 -96 0
-95 -96 0
94 95 96 0
-97 -98 0
-97 -99 0
-98 -99 0
97 98 99 0
-100 -101 0
-100 -102 0
-101 -102 0
100 101 102 0
-103 -104 0
-103 -105 0
-104 -105 0
103 104 105 0
-106 -107 0
-106 -108 0
-107 -108 0
106 107 108 0
-109 -110 0
-109 -111 0
-110 -111 0
109 110 111 0
-112 -113 0
-112 -114 0
-113 -114 0
112 113 114 0
-115 -116 0
-115 -117 0
-116 -117 0
115 116 117 0
-118 -119 0
-118 -120 0
-119 -120 0
118 119 120 0
-121 -122 0
-121 -123 0
-122 -123 0
121 122 123 0
-124 -125 0
-124 -126 0
-125 -126 0
124 125 126 0
-127 -128 0
-127 -129 0
-128 -129 0
127 128 129 0
-130 -131 0
-130 -132 0
-131 -132 0
130 131 132 0
-133 -134 0
-133 -135 0
-134 -135 0
133 134 135 0
-136 -137 0
-136 -138 0
-137 -138 0
136 137 138 0
-139 -140 0
-139 -141 0
-140 -141 0
139 140 141 0
-142 -143 0
-142 -144 0
-143 -144 0
142 143 144 0
-145 -146 0
-145 -147 0
-146 -147 0
145 146 147 0
-148 -149 0
-148 -150 0
-149 -150 0
148 149 150 0
-151 -152 0
-151 -153 0
-152 -153 0
151 152 153 0
-154 -155 0
-154 -156 0
-155 -156 0
154 155 156 0
-157 -158 0
-157 -159 0
-158 -159 0
157 158 159 0
-160 -161 0
-160 -162 0
-161 -162 0
160 161 162 0
-163 -164 0
-163 -165 0
-164 -165 0
163 164 165 0
-166 -167 0
-166 -168 0
-167 -168 0
166 167 168 0
-169 -170 0
-169 -171 0
-170 -171 0
169 170 171 0
-172 -173 0
-172 -174 0
-173 -174 0
172 173 174 0
-175 -176 0
-175 -177 0
-176 -177 0
175 176 177 0
-178 -179 0
-178 -180 0
-179 -180 0
178 179 180 0
-181 -182 0
-181 -183 0
-182 -183 0
181 182 183 0
-184 -185 0
-184 -186 0
-185 -186 0
184 185 186 0
-187 -188 0
-187 -189 0
-188 -189 0
187 188 189 0
-190 -191 0
-190 -192 0
-191 -192 0
190 191 192 0
-193 -194 0
-193 -195 0
-194 -195 0
193 194 195 0
-196 -197 0
-196 -198 0
-197 -198 0
196 197 198 0
-199 -200 0
-199 -201 0
-200 -201 0
199 200 201 0
-202 -203 0
-202 -204 0
-203 -204 0
202 203 204 0
-205 -206 0
-205 -207 0
-206 -207 0
205 206 207 0
-208 -209 0
-208 -210 0
-209 -210 0
208 209 210 0
-211 -212 0
-211 -213 0
-212 -213 0
211 212 213 0
-214 -215 0
-214 -216 0
-215 -216 0
214 215 216 0
-217 -218 0
-217 -219 0
-218 -219 0
217 218 219 0
-220 -221 0
-220 -222 0
-221 -222 0
220 221 222 0
-223 -224 0
-223 -225 0
-224 -225 0
223 224 225 0
-76 -1 0
-77 -2 0
-78 -3 0
-181 -1 0
-182 -2 0
-183 -3 0
-214 -1 0
-215 -2 0
-216 -3 0
-10 -4 0
-11 -5 0
-12 -6 0
-49 -4 0
-50 -5 0
-51 -6 0
-64 -4 0
-65 -5 0
-66 -6 0
-121 -4 0
-122 -5 0
-123 -6 0
-151 -4 0
-152 -5 0
-153 -6 0
-157 -4 0
-158 -5 0
-159 -6 0
-193 -4 0
-194 -5 0
-195 -6 0
-31 -7 0
-32 -8 0
-33 -9 0
-34 -7 0
-35 -8 0
-36 -9 0
-115 -7 0
-116 -8 0
-117 -9 0
-142 -7 0
-143 -8 0
-144 -9 0
-160 -7 0
-161 -8 0
-162 -9 0
-172 -7 0
-173 -8 0
-174 -9 0
-199 -7 0
-200 -8 0
-201 -9 0
-148 -10 0
-149 -11 0
-150 -12 0
-163 -10 0
-164 -11 0
-165 -12 0
-187 -10 0
-188 -11 0
-189 -12 0
-223 -10 0
-224 -11 0
-225 -12 0
-28 -13 0
-29 -14 0
-30 -15 0
-70 -13 0
-71 -14 0
-72 -15 0
-94 -13 0
-95 -14 0
-96 -15 0
-139 -13 0
-140 -14 0
-141 -15 0
-196 -13 0
-197 -14 0
-198 -15 0
-211 -13 0
-212 -14 0
-213 -15 0
-52 -16 0
-53 -17 0
-54 -18 0
-103 -16 0
-104 -17 0
-105 -18 0
-160 -16 0
-161 -17 0
-162 -18 0
-169 -16 0
-170 -17 0
-171 -18 0
-172 -16 0
-173 -17 0
-174 -18 0
-34 -19 0
-35 -20 0
-36 -21 0
-124 -19 0
-125 -20 0
-126 -21 0
-145 -19 0
-146 -20 0
-147 -21 0
-175 -19 0
-176 -20 0
-177 -21 0
-28 -22 0
-29 -23 0
-30 -24 0
-70 -22 0
-71 -23 0
-72 -24 0
-79 -22 0
-80 -23 0
-81 -24 0
-136 -22 0
-137 -23 0
-138 -24 0
-148 -22 0
-149 -23 0
-150 -24 0
-205 -22 0
-206 -23 0
-207 -24 0
-28 -25 0
-29 -26 0
-30 -27 0
-106 -25 0
-107 -26 0
-108 -27 0
-109 -25 0
-110 -26 0
-111 -27 0
-190 -25 0
-191 -26 0
-192 -27 0
-37 -28 0
-38 -29 0
-39 -30 0
-115 -28 0
-116 -29 0
-117 -30 0
-145 -28 0
-146 -29 0
-147 -30 0
-40 -31 0
-41 -32 0
-42 -33 0
-70 -31 0
-71 -32 0
-72 -33 0
-82 -31 0
-83 -32 0
-84 -33 0
-103 -31 0
-104 -32 0
-105 -33 0
-148 -31 0
-149 -32 0
-150 -33 0
-55 -34 0
-56 -35 0
-57 -36 0
-79 -34 0
-80 -35 0
-81 -36 0
-208 -34 0
-209 -35 0
-210 -36 0
-82 -37 0
-83 -38 0
-84 -39 0
-112 -37 0
-113 -38 0
-114 -39 0
-115 -37 0
-116 -38 0
-117 -39 0
-133 -37 0
-134 -38 0
-135 -39 0
-187 -37 0
-188 -38 0
-189 -39 0
-85 -40 0
-86 -41 0
-87 -42 0
-109 -40 0
-110 -41 0
-111 -42 0
-130 -40 0
-131 -41 0
-132 -42 0
-145 -40 0
-146 -41 0
-147 -42 0
-148 -40 0
-149 -41 0
-150 -42 0
-199 -40 0
-200 -41 0
-201 -42 0
-220 -40 0
-221 -41 0
-222 -42 0
-49 -43 0
-50 -44 0
-51 -45 0
-91 -43 0
-92 -44 0
-93 -45 0
-118 -43 0
-119 -44 0
-120 -45 0
-124 -43 0
-125 -44 0
-126 -45 0
-169 -43 0
-170 -44 0
-171 -45 0
-178 -43 0
-179 -44 0
-180 -45 0
-49 -46 0
-50 -47 0
-51 -48 0
-61 -46 0
-62 -47 0
-63 -48 0
-97 -46 0
-98 -47 0
-99 -48 0
-124 -46 0
-125 -47 0
-126 -48 0
-205 -46 0
-206 -47 0
-207 -48 0
-211 -46 0
-212 -47 0
-213 -48 0
-52 -49 0
-53 -50 0
-54 -51 0
-118 -49 0
-119 -50 0
-120 -51 0
-151 -49 0
-152 -50 0
-153 -51 0
-124 -52 0
-125 -53 0
-126 -54 0
-136 -52 0
-137 -53 0
-138 -54 0
-139 -52 0
-140 -53 0
-141 -54 0
-163 -52 0
-164 -53 0
-165 -54 0
-91 -55 0
-92 -56 0
-93 -57 0
-109 -55 0
-110 -56 0
-111 -57 0
-157 -55 0
-158 -56 0
-159 -57 0
-175 -55 0
-176 -56 0
-177 -57 0
-73 -58 0
-74 -59 0
-75 -60 0
-79 -61 0
-80 -62 0
-81 -63 0
-115 -61 0
-116 -62 0
-117 -63 0
-184 -61 0
-185 -62 0
-186 -63 0
-214 -61 0
-215 -62 0
-216 -63 0
-142 -64 0
-143 -65 0
-144 -66 0
-157 -67 0
-158 -68 0
-159 -69 0
-172 -67 0
-173 -68 0
-174 -69 0
-214 -67 0
-215 -68 0
-216 -69 0
-112 -70 0
-113 -71 0
-114 -72 0
-196 -70 0
-197 -71 0
-198 -72 0
-202 -70 0
-203 -71 0
-204 -72 0
-127 -73 0
-128 -74 0
-129 -75 0
-157 -73 0
-158 -74 0
-159 -75 0
-178 -73 0
-179 -74 0
-180 -75 0
-217 -73 0
-218 -74 0
-219 -75 0
-100 -76 0
-101 -77 0
-102 -78 0
-157 -76 0
-158 -77 0
-159 -78 0
-211 -76 0
-212 -77 0
-213 -78 0
-106 -79 0
-107 -80 0
-108 -81 0
-121 -79 0
-122 -80 0
-123 -81 0
-187 -79 0
-188 -80 0
-189 -81 0
-85 -82 0
-86 -83 0
-87 -84 0
-169 -82 0
-170 -83 0
-171 -84 0
-190 -82 0
-191 -83 0
-192 -84 0
-181 -85 0
-182 -86 0
-183 -87 0
-142 -88 0
-143 -89 0
-144 -90 0
-169 -88 0
-170 -89 0
-171 -90 0
-223 -88 0
-224 -89 0
-225 -90 0
-124 -91 0
-125 -92 0
-126 -93 0
-133 -91 0
-134 -92 0
-135 -93 0
-172 -91 0
-173 -92 0
-174 -93 0
-217 -91 0
-218 -92 0
-219 -93 0
-109 -97 0
-110 -98 0
-111 -99 0
-139 -97 0
-140 -98 0
-141 -99 0
-160 -97 0
-161 -98 0
-162 -99 0
-172 -100 0
-173 -101 0
-174 -102 0
-175 -100 0
-176 -101 0
-177 -102 0
-217 -100 0
-218 -101 0
-219 -102 0
-181 -103 0
-182 -104 0
-183 -105 0
-190 -103 0
-191 -104 0
-192 -105 0
-214 -103 0
-215 -104 0
-216 -105 0
-193 -106 0
-194 -107 0
-195 -108 0
-199 -106 0
-200 -107 0
-201 -108 0
-130 -109 0
-131 -110 0
-132 -111 0
-172 -109 0
-173 -110 0
-174 -111 0
-142 -112 0
-143 -113 0
-144 -114 0
-118 -115 0
-119 -116 0
-120 -117 0
-190 -115 0
-191 -116 0
-192 -117 0
-151 -118 0
-152 -119 0
-153 -120 0
-199 -118 0
-200 -119 0
-201 -120 0
-202 -118 0
-203 -119 0
-204 -120 0
-151 -121 0
-152 -122 0
-153 -123 0
-178 -121 0
-179 -122 0
-180 -123 0
-202 -121 0
-203 -122 0
-204 -123 0
-211 -121 0
-212 -122 0
-213 -123 0
-217 -121 0
-218 -122 0
-219 -123 0
-139 -124 0
-140 -125 0
-141 -126 0
-142 -124 0
-143 -125 0
-144 -126 0
-181 -130 0
-182 -131 0
-183 -132 0
-199 -130 0
-200 -131 0
-201 -132 0
-208 -133 0
-209 -134 0
-210 -135 0
-160 -142 0
-161 -143 0
-162 -144 0
-184 -142 0
-185 -143 0
-186 -144 0
-208 -142 0
-209 -143 0
-210 -144 0
-181 -148 0
-182 -149 0
-183 -150 0
-154 -151 0
-155 -152 0
-156 -153 0
-205 -151 0
-206 -152 0
-207 -153 0
-175 -154 0
-176 -155 0
-177 -156 0
-193 -154 0
-194 -155 0
-195 -156 0
-196 -154 0
-197 -155 0
-198 -156 0
-199 -154 0
-200 -155 0
-201 -156 0
-223 -157 0
-224 -158 0
-225 -159 0
-163 -160 0
-164 -161 0
-165 -162 0
-166 -160 0
-167 -161 0
-168 -162 0
-205 -160 0
-206 -161 0
-207 -162 0
-217 -163 0
-218 -164 0
-219 -165 0
-169 -166 0
-170 -167 0
-171 -168 0
-214 -166 0
-215 -167 0
-216 -168 0
-190 -169 0
-191 -170 0
-192 -171 0
-214 -169 0
-215 -170 0
-216 -171 0
-223 -178 0
-224 -179 0
-225 -180 0
-193 -184 0
-194 -185 0
-195 -186 0
-217 -190 0
-218 -191 0
-219 -192 0
-208 -193 0
-209 -194 0
-210 -195 0
-211 -196 0
-212 -197 0
-213 -198 0
-220 -196 0
-221 -197 0
-222 -198 0
-220 -205 0
-221 -206 0
-222 -207 0
